50
27835

689 267
559 505
556 903
460 994
404 719
872 729
835 859
899 294
617 728
251 188
525 107
280 399
883 571
993 544
460 244
566 555
954 111
458 503
737 4
797 802
600 394
951 554
57 599
863 636
570 822
903 361
63 72
899 316
379 35
549 167
193 651
352 746
883 742
867 295
710 812
754 435
299 4
408 510
993 370
669 88
727 820
862 78
111 198
914 62
306 884
358 146
646 974
852 297
330 663
756 871
